NAME : mEgtspf.pid32667.gtsp.332860186.tour
COMMENT : Length = 332860186
COMMENT : Found by LKH [Keld Helsgaun] Fri Mar  7 03:11:26 2025
TYPE : TOUR
DIMENSION : 212
TOUR_SECTION
1
119
120
117
118
95
96
93
94
12
201
202
203
204
137
138
139
140
59
60
57
58
110
111
112
109
77
78
79
80
185
186
187
188
64
61
62
63
81
82
83
84
16
13
14
15
101
102
103
104
148
145
146
147
122
123
124
121
53
54
55
56
164
161
162
163
200
197
198
199
11
4
107
108
105
106
92
89
90
91
125
126
127
128
144
141
142
143
33
34
35
36
194
195
196
193
165
166
167
168
113
114
115
116
32
29
30
31
189
190
191
192
74
75
76
73
157
158
159
160
208
205
206
207
136
133
134
135
3
23
24
21
22
72
69
70
71
85
86
87
88
5
172
169
170
171
10
182
183
184
181
2
50
51
52
49
153
154
155
156
48
45
46
47
17
18
19
20
132
129
130
131
6
176
173
174
175
44
41
42
43
149
150
151
152
177
178
179
180
9
40
37
38
39
8
25
26
27
28
212
209
210
211
99
100
97
98
67
68
65
66
7
-1
EOF
